(set-info :smt-lib-version 2.6)
(set-logic QF_S)
(set-info :source |
Generated by: Murphy Berzish, Mitja Kulczynski, Federico Mora, Florin Manea, Joel Day, Dirk Nowotka, Vijay Ganesh, Zhengyang Lu
Generated on: 2020-10-01
Description: Translated from a collection of real-world regex queries, AutomataArk, collected by Loris D’Antoni and Fang Wang: https://github.com/lorisdanto/automatark
Application: Evaluate solvers on real-world regex queries
Target solver: Z3str3RE, CVC4, OSTRICH, Z3seq, Z3str3, Z3-Trau
Publications: Berzish, M., Kulczynski, M., Mora, F., Manea, F., Day, J. D., Nowotka, D., & Ganesh, V. (2021, July). An SMT solver for regular expressions and linear arithmetic over string length. In CAV 2021.
|)
(set-info :license "https://creativecommons.org/licenses/by/4.0/")
(set-info :category "industrial")
(set-info :status sat)

(declare-const X String)
(assert (not (str.in_re X (re.++ (re.union (re.++ (str.to_re "0") (re.union (re.++ (str.to_re "0") (re.union (str.to_re "4") (str.to_re "8"))) (re.++ (str.to_re "1") (re.union (str.to_re "0") (str.to_re "2") (str.to_re "6"))) (re.++ (str.to_re "2") (re.union (str.to_re "0") (str.to_re "4") (str.to_re "8"))) (re.++ (str.to_re "3") (re.union (str.to_re "1") (str.to_re "2") (str.to_re "6"))) (re.++ (str.to_re "4") (re.union (str.to_re "0") (str.to_re "4") (str.to_re "8"))) (re.++ (str.to_re "5") (re.union (str.to_re "0") (str.to_re "1") (str.to_re "2") (str.to_re "6"))) (re.++ (str.to_re "6") (re.union (str.to_re "0") (str.to_re "4") (str.to_re "8"))) (re.++ (str.to_re "7") (re.union (str.to_re "0") (str.to_re "2") (str.to_re "4") (str.to_re "6"))) (re.++ (str.to_re "8") (re.union (str.to_re "4") (str.to_re "6"))) (re.++ (str.to_re "9") (re.union (str.to_re "0") (str.to_re "2") (str.to_re "6"))))) (re.++ (str.to_re "1") (re.union (re.++ (str.to_re "0") (re.union (str.to_re "0") (str.to_re "4") (str.to_re "8"))) (re.++ (str.to_re "1") (re.union (str.to_re "2") (str.to_re "6"))) (re.++ (str.to_re "2") (re.union (str.to_re "0") (str.to_re "4"))) (re.++ (str.to_re "3") (re.union (str.to_re "2") (str.to_re "6"))) (re.++ (str.to_re "4") (re.union (str.to_re "0") (str.to_re "4") (str.to_re "8"))) (re.++ (str.to_re "5") (re.union (str.to_re "2") (str.to_re "6"))) (re.++ (str.to_re "6") (re.union (str.to_re "2") (str.to_re "6"))) (re.++ (str.to_re "7") (re.union (str.to_re "0") (str.to_re "4") (str.to_re "5") (str.to_re "8"))) (re.++ (str.to_re "8") (re.union (str.to_re "0") (str.to_re "4") (str.to_re "8"))) (re.++ (str.to_re "9") (re.union (str.to_re "1") (str.to_re "2") (str.to_re "6"))))) (re.++ (str.to_re "2") (re.union (re.++ (str.to_re "0") (re.union (str.to_re "3") (str.to_re "4") (str.to_re "8"))) (re.++ (str.to_re "1") (re.union (str.to_re "2") (str.to_re "4") (str.to_re "8"))) (re.++ (str.to_re "2") (re.union (str.to_re "2") (str.to_re "6"))) (re.++ (str.to_re "3") (re.union (str.to_re "1") (str.to_re "2") (str.to_re "3") (str.to_re "4") (str.to_re "8") (str.to_re "9"))) (re.++ (str.to_re "4") (re.union (str.to_re "2") (str.to_re "4") (str.to_re "8"))) (re.++ (str.to_re "5") (re.union (str.to_re "0") (str.to_re "4") (str.to_re "8"))) (re.++ (str.to_re "6") (re.union (str.to_re "0") (str.to_re "2") (str.to_re "6") (str.to_re "8"))) (re.++ (str.to_re "7") (re.union (str.to_re "0") (str.to_re "5") (str.to_re "6"))) (str.to_re "88") (re.++ (str.to_re "9") (re.union (str.to_re "2") (str.to_re "6"))))) (re.++ (str.to_re "3") (re.union (re.++ (str.to_re "0") (re.union (str.to_re "0") (str.to_re "4") (str.to_re "8"))) (re.++ (str.to_re "1") (re.union (str.to_re "2") (str.to_re "6"))) (re.++ (str.to_re "2") (re.union (str.to_re "0") (str.to_re "4") (str.to_re "8"))) (re.++ (str.to_re "3") (re.union (str.to_re "2") (str.to_re "4") (str.to_re "6"))) (re.++ (str.to_re "4") (re.union (str.to_re "0") (str.to_re "4") (str.to_re "8"))) (re.++ (str.to_re "5") (re.union (str.to_re "2") (str.to_re "6"))) (re.++ (str.to_re "6") (re.union (str.to_re "0") (str.to_re "4") (str.to_re "8"))) (re.++ (str.to_re "7") (re.union (str.to_re "2") (str.to_re "6"))) (re.++ (str.to_re "8") (re.union (str.to_re "0") (str.to_re "4") (str.to_re "8") (str.to_re "9"))) (str.to_re "92"))) (re.++ (str.to_re "4") (re.union (re.++ (str.to_re "0") (re.union (str.to_re "0") (str.to_re "4") (str.to_re "8"))) (re.++ (str.to_re "1") (re.union (str.to_re "0") (str.to_re "4") (str.to_re "7") (str.to_re "8"))) (re.++ (str.to_re "2") (re.union (str.to_re "2") (str.to_re "6") (str.to_re "8"))) (re.++ (str.to_re "3") (re.union (str.to_re "0") (str.to_re "4") (str.to_re "8"))) (re.++ (str.to_re "4") (re.union (str.to_re "0") (str.to_re "2") (str.to_re "6"))) (re.++ (str.to_re "5") (re.union (str.to_re "0") (str.to_re "4") (str.to_re "8"))) (re.++ (str.to_re "6") (re.union (str.to_re "2") (str.to_re "6"))) (re.++ (str.to_re "7") (re.union (str.to_re "0") (str.to_re "4") (str.to_re "8"))) (re.++ (str.to_re "8") (re.union (str.to_re "0") (str.to_re "4"))) (re.++ (str.to_re "9") (re.union (str.to_re "2") (str.to_re "6") (str.to_re "8") (str.to_re "9"))))) (re.++ (str.to_re "5") (re.union (re.++ (str.to_re "0") (re.union (str.to_re "0") (str.to_re "4") (str.to_re "8"))) (re.++ (str.to_re "1") (re.union (str.to_re "2") (str.to_re "6"))) (re.++ (str.to_re "2") (re.union (str.to_re "0") (str.to_re "4") (str.to_re "8"))) (re.++ (str.to_re "3") (re.union (str.to_re "0") (str.to_re "3"))) (re.++ (str.to_re "4") (re.union (str.to_re "0") (str.to_re "8"))) (re.++ (str.to_re "5") (re.union (str.to_re "4") (str.to_re "8"))) (re.++ (str.to_re "6") (re.union (str.to_re "2") (str.to_re "6"))) (re.++ (str.to_re "7") (re.union (str.to_re "0") (str.to_re "4") (str.to_re "8"))) (re.++ (str.to_re "8") (re.union (str.to_re "0") (str.to_re "1") (str.to_re "3") (str.to_re "4") (str.to_re "5") (str.to_re "6"))) (re.++ (str.to_re "9") (re.union (str.to_re "1") (str.to_re "8"))))) (re.++ (str.to_re "6") (re.union (re.++ (str.to_re "0") (re.union (str.to_re "0") (str.to_re "4") (str.to_re "8"))) (re.++ (str.to_re "1") (re.union (str.to_re "2") (str.to_re "6"))) (re.++ (str.to_re "2") (re.union (str.to_re "0") (str.to_re "4") (str.to_re "6"))) (re.++ (str.to_re "3") (re.union (str.to_re "0") (str.to_re "4") (str.to_re "8"))) (re.++ (str.to_re "4") (re.union (str.to_re "2") (str.to_re "3") (str.to_re "6"))) (re.++ (str.to_re "5") (re.union (str.to_re "2") (str.to_re "4") (str.to_re "9"))) (re.++ (str.to_re "6") (re.union (str.to_re "0") (str.to_re "2") (str.to_re "3") (str.to_re "6"))) (re.++ (str.to_re "7") (re.union (str.to_re "0") (str.to_re "4") (str.to_re "8"))) (re.++ (str.to_re "8") (re.union (str.to_re "2") (str.to_re "6") (str.to_re "8"))) (re.++ (str.to_re "9") (re.union (str.to_re "0") (str.to_re "4"))))) (re.++ (str.to_re "7") (re.union (re.++ (str.to_re "0") (re.union (str.to_re "2") (str.to_re "3") (str.to_re "4") (str.to_re "5") (str.to_re "6"))) (re.++ (str.to_re "1") (re.union (str.to_re "0") (str.to_re "6"))) (str.to_re "24") (re.++ (str.to_re "3") (re.union (str.to_re "2") (str.to_re "6"))) (re.++ (str.to_re "4") (re.union (str.to_re "0") (str.to_re "4") (str.to_re "8"))) (re.++ (str.to_re "5") (re.union (str.to_re "2") (str.to_re "6"))) (re.++ (str.to_re "6") (re.union (str.to_re "0") (str.to_re "4") (str.to_re "8"))) (re.++ (str.to_re "7") (re.union (str.to_re "2") (str.to_re "6"))) (re.++ (str.to_re "8") (re.union (str.to_re "0") (str.to_re "4") (str.to_re "8"))) (re.++ (str.to_re "9") (re.union (str.to_re "2") (str.to_re "5") (str.to_re "6") (str.to_re "8"))))) (re.++ (str.to_re "8") (re.union (re.++ (str.to_re "0") (re.union (str.to_re "0") (str.to_re "4") (str.to_re "7"))) (str.to_re "26") (re.++ (str.to_re "3") (re.union (str.to_re "1") (str.to_re "2") (str.to_re "3") (str.to_re "4"))) (str.to_re "40") (re.++ (str.to_re "5") (re.union (str.to_re "0") (str.to_re "8"))) (re.++ (str.to_re "6") (re.union (str.to_re "0") (str.to_re "2"))) (str.to_re "76") (re.++ (str.to_re "8") (re.union (str.to_re "2") (str.to_re "7"))) (str.to_re "94")))) (str.to_re "\u{a}")))))
(assert (not (str.in_re X (re.++ (str.to_re "/.docx") (re.union (str.to_re "?") (str.to_re "\u{5c}") (str.to_re "/")) (str.to_re "/smiU\u{a}")))))
(assert (str.in_re X (re.++ (str.to_re "/filename=") (re.* (re.comp (str.to_re "\u{a}"))) (str.to_re ".s3m/i\u{a}"))))
(assert (not (str.in_re X (re.++ (str.to_re "tb.freeprod.com") (re.+ (re.union (str.to_re " ") (str.to_re "\u{9}") (str.to_re "\u{a}") (str.to_re "\u{c}") (str.to_re "\u{d}"))) (str.to_re "Web.fcgiclvompycem/cen.vcn\u{a}")))))
(assert (not (str.in_re X (re.++ (re.opt (re.++ (re.union (str.to_re "FI") (str.to_re "HU") (str.to_re "LU") (str.to_re "MT") (str.to_re "SI")) (re.opt (str.to_re "-")))) ((_ re.loop 8 8) (re.range "0" "9")) (str.to_re "\u{a}")))))
(check-sat)

(exit)
